
Gurobi 8.1.1 (win64, Python) logging started 08/12/19 17:09:07

Academic license - for non-commercial use only

Gurobi 8.1.1 (win64, Python) logging started 08/12/19 17:10:01

Academic license - for non-commercial use only

Gurobi 8.1.1 (win64, Python) logging started 08/12/19 17:20:45

Academic license - for non-commercial use only

Gurobi 8.1.1 (win64, Python) logging started 08/12/19 17:26:26

Academic license - for non-commercial use only

Gurobi 8.1.1 (win64, Python) logging started 08/12/19 17:28:04

Academic license - for non-commercial use only

Gurobi 8.1.1 (win64, Python) logging started 08/12/19 17:35:56

Academic license - for non-commercial use only

Gurobi 8.1.1 (win64, Python) logging started 08/12/19 17:36:24

Academic license - for non-commercial use only

Gurobi 8.1.1 (win64, Python) logging started 08/12/19 17:36:46

Academic license - for non-commercial use only

Gurobi 8.1.1 (win64, Python) logging started 08/12/19 17:43:57

Academic license - for non-commercial use only

Gurobi 8.1.1 (win64, Python) logging started 08/12/19 17:45:10

Academic license - for non-commercial use only

Gurobi 8.1.1 (win64, Python) logging started 08/12/19 17:45:36

Academic license - for non-commercial use only

Gurobi 8.1.1 (win64, Python) logging started 08/12/19 17:47:13

Academic license - for non-commercial use only

Gurobi 8.1.1 (win64, Python) logging started 08/12/19 17:49:38

Academic license - for non-commercial use only

Gurobi 8.1.1 (win64, Python) logging started 08/12/19 18:00:08

Academic license - for non-commercial use only

Gurobi 8.1.1 (win64, Python) logging started 08/12/19 18:00:28

Academic license - for non-commercial use only

Gurobi 8.1.1 (win64, Python) logging started 08/12/19 18:16:50

Academic license - for non-commercial use only

Gurobi 8.1.1 (win64, Python) logging started 08/12/19 18:18:07

Academic license - for non-commercial use only

Gurobi 8.1.1 (win64, Python) logging started 08/12/19 18:19:22

Academic license - for non-commercial use only

Gurobi 8.1.1 (win64, Python) logging started 08/12/19 18:19:48

Academic license - for non-commercial use only

Gurobi 8.1.1 (win64, Python) logging started 08/12/19 18:20:26

Academic license - for non-commercial use only

Gurobi 8.1.1 (win64, Python) logging started 08/12/19 18:21:24

Academic license - for non-commercial use only

Gurobi 8.1.1 (win64, Python) logging started 08/12/19 18:22:56

Academic license - for non-commercial use only

Gurobi 8.1.1 (win64, Python) logging started 08/12/19 18:31:14

Academic license - for non-commercial use only

Gurobi 8.1.1 (win64, Python) logging started 08/12/19 18:31:45

Academic license - for non-commercial use only

Gurobi 8.1.1 (win64, Python) logging started 08/12/19 18:31:54

Academic license - for non-commercial use only

Gurobi 8.1.1 (win64, Python) logging started 08/12/19 18:33:21

Academic license - for non-commercial use only

Gurobi 8.1.1 (win64, Python) logging started 08/12/19 18:33:50

Academic license - for non-commercial use only

Gurobi 8.1.1 (win64, Python) logging started 08/12/19 18:34:11

Academic license - for non-commercial use only

Gurobi 8.1.1 (win64, Python) logging started 08/12/19 18:34:38

Academic license - for non-commercial use only

Gurobi 8.1.1 (win64, Python) logging started 08/12/19 18:34:47

Academic license - for non-commercial use only

Gurobi 8.1.1 (win64, Python) logging started 08/12/19 18:35:10

Academic license - for non-commercial use only

Gurobi 8.1.1 (win64, Python) logging started 08/14/19 12:52:57

Academic license - for non-commercial use only

Gurobi 8.1.1 (win64, Python) logging started 08/14/19 13:23:31

Academic license - for non-commercial use only

Gurobi 8.1.1 (win64, Python) logging started 08/14/19 13:25:15

Academic license - for non-commercial use only

Gurobi 8.1.1 (win64, Python) logging started 08/14/19 13:25:46

Academic license - for non-commercial use only

Gurobi 8.1.1 (win64, Python) logging started 08/14/19 14:43:49

Academic license - for non-commercial use only

Gurobi 8.1.1 (win64, Python) logging started 08/14/19 14:44:08

Academic license - for non-commercial use only

Gurobi 8.1.1 (win64, Python) logging started 08/14/19 14:45:12

Academic license - for non-commercial use only

Gurobi 8.1.1 (win64, Python) logging started 08/14/19 14:53:41

Academic license - for non-commercial use only

Gurobi 8.1.1 (win64, Python) logging started 08/14/19 14:54:53

Academic license - for non-commercial use only

Gurobi 8.1.1 (win64, Python) logging started 08/14/19 14:55:21

Academic license - for non-commercial use only
Optimize a model with 200 rows, 196 columns and 712 nonzeros
Variable types: 0 continuous, 196 integer (196 binary)
Coefficient statistics:
  Matrix range     [1e+00, 1e+00]
  Objective range  [1e+00, 1e+00]
  Bounds range     [1e+00, 1e+00]
  RHS range        [1e+00, 1e+00]
Presolve time: 0.01s

Explored 0 nodes (0 simplex iterations) in 0.07 seconds
Thread count was 1 (of 4 available processors)

Solution count 0

Model is infeasible
Best objective -, best bound -, gap -

Gurobi 8.1.1 (win64, Python) logging started 08/14/19 15:02:52

Academic license - for non-commercial use only
Optimize a model with 200 rows, 196 columns and 712 nonzeros
Variable types: 0 continuous, 196 integer (196 binary)
Coefficient statistics:
  Matrix range     [1e+00, 1e+00]
  Objective range  [1e+00, 1e+00]
  Bounds range     [1e+00, 1e+00]
  RHS range        [1e+00, 1e+00]
Presolve time: 0.00s

Explored 0 nodes (0 simplex iterations) in 0.00 seconds
Thread count was 1 (of 4 available processors)

Solution count 0

Model is infeasible
Best objective -, best bound -, gap -

Gurobi 8.1.1 (win64, Python) logging started 08/14/19 15:03:51

Academic license - for non-commercial use only

Gurobi 8.1.1 (win64, Python) logging started 08/14/19 15:04:02

Academic license - for non-commercial use only

Gurobi 8.1.1 (win64, Python) logging started 08/14/19 15:32:47

Academic license - for non-commercial use only

Gurobi 8.1.1 (win64, Python) logging started 08/14/19 15:34:42

Academic license - for non-commercial use only

Gurobi 8.1.1 (win64, Python) logging started 08/14/19 15:35:32

Academic license - for non-commercial use only

Gurobi 8.1.1 (win64, Python) logging started 08/14/19 15:35:47

Academic license - for non-commercial use only

Gurobi 8.1.1 (win64, Python) logging started 08/14/19 15:36:01

Academic license - for non-commercial use only

Gurobi 8.1.1 (win64, Python) logging started 08/14/19 15:36:53

Academic license - for non-commercial use only

Gurobi 8.1.1 (win64, Python) logging started 08/14/19 15:37:06

Academic license - for non-commercial use only

Gurobi 8.1.1 (win64, Python) logging started 08/14/19 15:37:18

Academic license - for non-commercial use only

Gurobi 8.1.1 (win64, Python) logging started 08/14/19 15:37:53

Academic license - for non-commercial use only

Gurobi 8.1.1 (win64, Python) logging started 08/21/19 01:37:10

Academic license - for non-commercial use only

Gurobi 8.1.1 (linux64, Python) logging started Sat Aug 31 05:09:44 2019

Academic license - for non-commercial use only

Gurobi 8.1.1 (linux64, Python) logging started Tue Sep 10 02:00:59 2019

Academic license - for non-commercial use only

Gurobi 8.1.1 (linux64, Python) logging started Tue Sep 10 02:01:50 2019

Academic license - for non-commercial use only

Gurobi 8.1.1 (linux64, Python) logging started Tue Sep 10 02:02:13 2019

Academic license - for non-commercial use only

Gurobi 8.1.1 (linux64, Python) logging started Tue Sep 10 02:02:52 2019

Academic license - for non-commercial use only

Gurobi 8.1.1 (linux64, Python) logging started Tue Sep 10 02:03:09 2019

Academic license - for non-commercial use only

Gurobi 8.1.1 (linux64, Python) logging started Tue Sep 10 02:03:20 2019

Academic license - for non-commercial use only

Gurobi 8.1.1 (linux64, Python) logging started Tue Sep 10 02:06:01 2019

Academic license - for non-commercial use only

Gurobi 8.1.1 (linux64, Python) logging started Tue Sep 10 02:08:22 2019

Academic license - for non-commercial use only

Gurobi 8.1.1 (linux64, Python) logging started Tue Sep 10 02:14:57 2019

Academic license - for non-commercial use only

Gurobi 8.1.1 (linux64, Python) logging started Tue Sep 10 02:15:22 2019

Academic license - for non-commercial use only

Gurobi 8.1.1 (linux64, Python) logging started Tue Sep 10 02:15:37 2019

Academic license - for non-commercial use only

Gurobi 8.1.1 (linux64, Python) logging started Tue Sep 10 02:22:04 2019

Academic license - for non-commercial use only

Gurobi 8.1.1 (linux64, Python) logging started Tue Sep 10 02:22:11 2019

Academic license - for non-commercial use only

Gurobi 8.1.1 (linux64, Python) logging started Tue Sep 10 02:22:22 2019

Academic license - for non-commercial use only

Gurobi 8.1.1 (linux64, Python) logging started Tue Sep 10 02:22:34 2019

Academic license - for non-commercial use only

Gurobi 8.1.1 (linux64, Python) logging started Tue Sep 10 02:22:45 2019

Academic license - for non-commercial use only

Gurobi 8.1.1 (linux64, Python) logging started Tue Sep 10 02:29:42 2019

Academic license - for non-commercial use only

Gurobi 8.1.1 (linux64, Python) logging started Tue Sep 10 02:29:54 2019

Academic license - for non-commercial use only

Gurobi 8.1.1 (linux64, Python) logging started Tue Sep 10 02:34:30 2019

Academic license - for non-commercial use only

Gurobi 8.1.1 (linux64, Python) logging started Tue Sep 10 02:39:09 2019

Academic license - for non-commercial use only

Gurobi 8.1.1 (linux64, Python) logging started Tue Sep 10 02:39:58 2019

Academic license - for non-commercial use only
